17 19
0 10 7 6 2 5 5 10 9 8 7 1 1 4 5 8 0 
7 1 1 6 6 5 6 4 6 5 2 2 5 6 3 2 8 
1 4 0 0 
4 7 6 0 
7 9 5 0 
9 13 9 0 
13 15 1 0 
15 17 5 0 
1 11 0 0 
11 17 7 0 
1 2 0 0 
2 3 10 0 
3 5 7 0 
5 6 2 0 
6 8 5 0 
8 10 10 0 
10 12 8 0 
12 14 1 0 
14 16 4 0 
16 17 8 0 
17 1 0 2 
